p tw 30 45
1 2
1 12
1 30
2 12
2 13
3 5
3 15
3 19
4 7
4 21
4 25
5 9
5 21
6 10
6 25
6 30
7 15
7 30
8 16
8 24
8 26
9 11
9 15
10 12
10 21
11 18
11 19
13 16
13 29
14 20
14 22
14 23
16 17
17 20
17 27
18 19
18 22
20 28
22 29
23 26
23 28
24 28
24 29
25 27
26 27
